c 1 __SELECTED_FEATURE_autoresponder
c 2 __SELECTED_FEATURE_base
c 3 __SELECTED_FEATURE_keys
c 4 __SELECTED_FEATURE_decrypt
c 5 __SELECTED_FEATURE_addressbook
c 6 __SELECTED_FEATURE_verify
c 7 __SELECTED_FEATURE_encrypt
c 8 __SELECTED_FEATURE_sign
c 9 __SELECTED_FEATURE_forward
p cnf 9 11
2 0
-3 2 0
-1 2 0
-5 2 0
-9 2 0
-7 3 0
-6 3 0
-7 4 0
-4 7 0
-6 8 0
-8 6 0
